\ Equation counts
\     Total        E        G        L        N        X        C        B
\	95	95	0	0
\
\ Variable counts
\                  x        b        i      s1s      s2s       sc       si
\     Total     cont   binary  integer     sos1     sos2    scont     sint
\	40	40

\ Nonzero counts
\     Total    const       NL      DLL
\
\
Minimize
 obj: [ + 7.0 x_1 * x_1 - 8.5 x_1 * x_2 + 3.5 x_1 * x_3 + 22.0 x_1 * x_4 + 22.0 x_1 * x_6 + 23.5 x_1 * x_7 - 12.5 x_1 * x_9 - 12.0 x_1 * x_10 - 13.0 x_1 * x_11 + 18.0 x_1 * x_12 - 20.0 x_1 * x_13 - 1.5 x_1 * x_15 + 9.0 x_1 * x_21 + 20.5 x_1 * x_23 + 15.5 x_1 * x_27 - 5.5 x_1 * x_28 + 3.0 x_1 * x_30 - 6.5 x_1 * x_31 - 1.0 x_1 * x_33 - 3.0 x_1 * x_35 + 8.0 x_1 * x_37 - 8.5 x_2 * x_1 + 18.0 x_2 * x_3 - 6.5 x_2 * x_7 + 6.5 x_2 * x_8 + 20.5 x_2 * x_10 + 23.5 x_2 * x_12 + 10.5 x_2 * x_13 - 16.0 x_2 * x_14 + 10.5 x_2 * x_16 + 6.0 x_2 * x_17 - 18.0 x_2 * x_18 + 12.0 x_2 * x_20 + 21.0 x_2 * x_28 - 0.5 x_2 * x_30 + 7.5 x_2 * x_31 + 11.5 x_2 * x_32 + 2.0 x_2 * x_35 + 15.0 x_2 * x_37 + 3.0 x_2 * x_38 + 14.5 x_2 * x_39 + 3.5 x_3 * x_1 + 18.0 x_3 * x_2 - 15.5 x_3 * x_5 + 18.5 x_3 * x_6 + 5.0 x_3 * x_7 + 23.0 x_3 * x_10 + 12.0 x_3 * x_11 + 21.0 x_3 * x_14 + 11.5 x_3 * x_15 - 3.5 x_3 * x_18 + 14.5 x_3 * x_23 + 14.0 x_3 * x_24 + 1.5 x_3 * x_26 + 1.5 x_3 * x_27 + 6.0 x_3 * x_34 + 17.5 x_3 * x_36 - 17.5 x_3 * x_37 + 4.0 x_3 * x_40 + 22.0 x_4 * x_1 - 20.0 x_4 * x_6 + 24.5 x_4 * x_7 + 2.0 x_4 * x_8 + 23.5 x_4 * x_10 + 5.5 x_4 * x_11 - 3.5 x_4 * x_13 + 13.5 x_4 * x_14 + 1.0 x_4 * x_15 - 1.5 x_4 * x_17 + 4.5 x_4 * x_18 - 23.0 x_4 * x_22 + 13.0 x_4 * x_23 - 7.5 x_4 * x_25 - 0.5 x_4 * x_28 + 20.5 x_4 * x_32 + 15.5 x_4 * x_34 - 21.5 x_4 * x_35 - 10.0 x_4 * x_39 + 24.0 x_4 * x_40 - 15.5 x_5 * x_3 + 4.0 x_5 * x_5 + 1.0 x_5 * x_7 - 7.0 x_5 * x_8 + 9.0 x_5 * x_9 - 13.5 x_5 * x_10 + 24.0 x_5 * x_11 - 23.0 x_5 * x_13 - 11.5 x_5 * x_18 - 21.0 x_5 * x_25 - 20.5 x_5 * x_26 + 21.0 x_5 * x_28 - 20.0 x_5 * x_33 - 23.5 x_5 * x_34 + 12.5 x_5 * x_35 - 1.5 x_5 * x_37 - 7.0 x_5 * x_38 + 22.0 x_6 * x_1 + 18.5 x_6 * x_3 - 20.0 x_6 * x_4 + 2.5 x_6 * x_6 - 20.5 x_6 * x_10 - 19.5 x_6 * x_11 + 23.5 x_6 * x_15 + 16.0 x_6 * x_17 - 3.5 x_6 * x_18 - 5.0 x_6 * x_20 + 8.0 x_6 * x_22 - 1.5 x_6 * x_25 + 5.0 x_6 * x_26 - 20.5 x_6 * x_28 + 23.0 x_6 * x_35 + 8.5 x_6 * x_38 - 19.0 x_6 * x_40 + 23.5 x_7 * x_1 - 6.5 x_7 * x_2 + 5.0 x_7 * x_3 + 24.5 x_7 * x_4 + 1.0 x_7 * x_5 - 2.5 x_7 * x_10 - 4.0 x_7 * x_11 + 19.5 x_7 * x_12 + 2.5 x_7 * x_14 + 21.0 x_7 * x_16 - 19.0 x_7 * x_17 - 7.0 x_7 * x_24 + 7.0 x_7 * x_25 + 18.0 x_7 * x_28 + 5.0 x_7 * x_30 - 23.0 x_7 * x_31 - 12.5 x_7 * x_33 + 24.0 x_7 * x_34 + 22.5 x_7 * x_40 + 6.5 x_8 * x_2 + 2.0 x_8 * x_4 - 7.0 x_8 * x_5 + 19.0 x_8 * x_8 + 14.0 x_8 * x_10 + 20.5 x_8 * x_11 - 4.0 x_8 * x_15 - 19.0 x_8 * x_16 - 12.5 x_8 * x_24 - 3.5 x_8 * x_29 + 7.5 x_8 * x_30 + 6.5 x_8 * x_31 + 14.0 x_8 * x_35 - 16.0 x_8 * x_36 - 23.0 x_8 * x_38 - 18.0 x_8 * x_39 - 15.0 x_8 * x_40 - 12.5 x_9 * x_1 + 9.0 x_9 * x_5 + 18.0 x_9 * x_13 + 2.5 x_9 * x_16 + 1.5 x_9 * x_17 - 13.5 x_9 * x_18 + 22.5 x_9 * x_19 - 24.5 x_9 * x_20 - 17.5 x_9 * x_23 - 10.0 x_9 * x_26 - 10.5 x_9 * x_28 + 15.0 x_9 * x_29 - 1.5 x_9 * x_31 - 3.5 x_9 * x_32 + 23.0 x_9 * x_35 - 2.0 x_9 * x_36 + 18.5 x_9 * x_37 - 12.0 x_10 * x_1 + 20.5 x_10 * x_2 + 23.0 x_10 * x_3 + 23.5 x_10 * x_4 - 13.5 x_10 * x_5 - 20.5 x_10 * x_6 - 2.5 x_10 * x_7 + 14.0 x_10 * x_8 - 23.5 x_10 * x_12 - 24.5 x_10 * x_13 + 8.0 x_10 * x_14 + 12.5 x_10 * x_15 + 3.5 x_10 * x_17 - 12.5 x_10 * x_20 + 11.5 x_10 * x_23 + 22.5 x_10 * x_24 - 19.0 x_10 * x_26 - 7.5 x_10 * x_30 + 17.0 x_10 * x_33 + 11.0 x_10 * x_34 + 9.0 x_10 * x_35 + 2.5 x_10 * x_36 - 15.5 x_10 * x_37 - 24.0 x_10 * x_39 - 3.5 x_10 * x_40 - 13.0 x_11 * x_1 + 12.0 x_11 * x_3 + 5.5 x_11 * x_4 + 24.0 x_11 * x_5 - 19.5 x_11 * x_6 - 4.0 x_11 * x_7 + 20.5 x_11 * x_8 + 6.5 x_11 * x_11 + 4.5 x_11 * x_13 + 0.5 x_11 * x_14 - 14.0 x_11 * x_17 - 4.5 x_11 * x_18 - 10.5 x_11 * x_19 - 18.0 x_11 * x_21 + 10.5 x_11 * x_23 - 4.5 x_11 * x_25 - 2.0 x_11 * x_28 - 24.0 x_11 * x_29 + 5.5 x_11 * x_30 + 7.0 x_11 * x_32 + 1.0 x_11 * x_33 - 10.5 x_11 * x_34 - 16.0 x_11 * x_36 + 22.0 x_11 * x_37 + 18.0 x_12 * x_1 + 23.5 x_12 * x_2 + 19.5 x_12 * x_7 - 23.5 x_12 * x_10 - 15.0 x_12 * x_14 - 1.5 x_12 * x_15 - 20.0 x_12 * x_20 + 7.0 x_12 * x_22 - 4.0 x_12 * x_24 + 21.0 x_12 * x_26 - 5.0 x_12 * x_31 + 2.0 x_12 * x_33 - 0.5 x_12 * x_35 + 23.5 x_12 * x_39 - 20.0 x_13 * x_1 + 10.5 x_13 * x_2 - 3.5 x_13 * x_4 - 23.0 x_13 * x_5 + 18.0 x_13 * x_9 - 24.5 x_13 * x_10 + 4.5 x_13 * x_11 - 14.5 x_13 * x_14 + 12.5 x_13 * x_16 - 18.5 x_13 * x_19 + 2.0 x_13 * x_21 + 10.0 x_13 * x_22 - 2.5 x_13 * x_23 - 13.0 x_13 * x_24 + 11.0 x_13 * x_25 + 24.5 x_13 * x_27 - 13.0 x_13 * x_28 + 11.5 x_13 * x_29 - 5.0 x_13 * x_31 - 1.5 x_13 * x_32 + 1.5 x_13 * x_34 + 24.5 x_13 * x_35 - 22.5 x_13 * x_36 - 21.5 x_13 * x_38 + 0.5 x_13 * x_39 + 5.5 x_13 * x_40 - 16.0 x_14 * x_2 + 21.0 x_14 * x_3 + 13.5 x_14 * x_4 + 2.5 x_14 * x_7 + 8.0 x_14 * x_10 + 0.5 x_14 * x_11 - 15.0 x_14 * x_12 - 14.5 x_14 * x_13 - 23.5 x_14 * x_17 - 8.0 x_14 * x_18 - 10.5 x_14 * x_20 - 3.5 x_14 * x_21 + 3.5 x_14 * x_23 - 3.0 x_14 * x_24 - 1.0 x_14 * x_26 - 12.0 x_14 * x_27 + 17.5 x_14 * x_29 - 14.0 x_14 * x_30 - 18.0 x_14 * x_31 - 17.5 x_14 * x_32 - 8.0 x_14 * x_36 - 0.5 x_14 * x_37 + 7.5 x_14 * x_39 - 1.5 x_15 * x_1 + 11.5 x_15 * x_3 + 1.0 x_15 * x_4 + 23.5 x_15 * x_6 - 4.0 x_15 * x_8 + 12.5 x_15 * x_10 - 1.5 x_15 * x_12 - 12.5 x_15 * x_16 + 19.5 x_15 * x_18 - 3.5 x_15 * x_19 - 22.0 x_15 * x_21 - 17.5 x_15 * x_22 + 11.5 x_15 * x_24 - 2.5 x_15 * x_25 - 8.5 x_15 * x_26 - 2.5 x_15 * x_30 - 14.0 x_15 * x_31 + 17.5 x_15 * x_32 - 6.5 x_15 * x_34 + 22.0 x_15 * x_37 + 15.5 x_15 * x_39 + 10.5 x_16 * x_2 + 21.0 x_16 * x_7 - 19.0 x_16 * x_8 + 2.5 x_16 * x_9 + 12.5 x_16 * x_13 - 12.5 x_16 * x_15 - 18.0 x_16 * x_17 + 16.5 x_16 * x_22 - 18.0 x_16 * x_23 + 20.0 x_16 * x_24 - 5.0 x_16 * x_26 - 20.0 x_16 * x_27 + 15.0 x_16 * x_28 + 17.0 x_16 * x_29 - 15.5 x_16 * x_30 + 9.0 x_16 * x_31 + 4.5 x_16 * x_33 - 17.5 x_16 * x_34 - 8.0 x_16 * x_35 + 22.0 x_16 * x_36 + 0.5 x_16 * x_37 + 6.0 x_17 * x_2 - 1.5 x_17 * x_4 + 16.0 x_17 * x_6 - 19.0 x_17 * x_7 + 1.5 x_17 * x_9 + 3.5 x_17 * x_10 - 14.0 x_17 * x_11 - 23.5 x_17 * x_14 - 18.0 x_17 * x_16 - 2.0 x_17 * x_17 - 17.5 x_17 * x_19 - 22.0 x_17 * x_28 - 11.0 x_17 * x_29 - 9.5 x_17 * x_31 - 8.0 x_17 * x_33 - 24.0 x_17 * x_34 - 21.5 x_17 * x_36 - 9.5 x_17 * x_38 - 18.0 x_18 * x_2 - 3.5 x_18 * x_3 + 4.5 x_18 * x_4 - 11.5 x_18 * x_5 - 3.5 x_18 * x_6 - 13.5 x_18 * x_9 - 4.5 x_18 * x_11 - 8.0 x_18 * x_14 + 19.5 x_18 * x_15 - 17.5 x_18 * x_19 - 5.5 x_18 * x_20 + 0.5 x_18 * x_21 + 6.5 x_18 * x_22 + 23.0 x_18 * x_23 - 19.0 x_18 * x_24 - 4.0 x_18 * x_25 - 1.0 x_18 * x_27 - 22.0 x_18 * x_28 + 5.0 x_18 * x_31 + 21.5 x_18 * x_32 + 14.0 x_18 * x_33 + 12.5 x_18 * x_34 + 17.5 x_18 * x_35 - 4.0 x_18 * x_39 + 22.5 x_19 * x_9 - 10.5 x_19 * x_11 - 18.5 x_19 * x_13 - 3.5 x_19 * x_15 - 17.5 x_19 * x_17 - 17.5 x_19 * x_18 - 10.5 x_19 * x_24 - 19.0 x_19 * x_25 + 12.0 x_19 * x_28 - 4.5 x_19 * x_29 - 18.5 x_19 * x_31 + 4.5 x_19 * x_32 + 6.5 x_19 * x_33 - 23.5 x_19 * x_35 - 14.0 x_19 * x_36 - 16.0 x_19 * x_39 + 12.0 x_20 * x_2 - 5.0 x_20 * x_6 - 24.5 x_20 * x_9 - 12.5 x_20 * x_10 - 20.0 x_20 * x_12 - 10.5 x_20 * x_14 - 5.5 x_20 * x_18 + 20.0 x_20 * x_21 - 18.5 x_20 * x_22 - 22.0 x_20 * x_23 + 23.0 x_20 * x_26 + 3.0 x_20 * x_27 + 16.5 x_20 * x_30 - 3.5 x_20 * x_31 + 16.5 x_20 * x_32 + 16.0 x_20 * x_34 + 1.0 x_20 * x_35 - 15.0 x_20 * x_37 + 3.0 x_20 * x_38 - 13.0 x_20 * x_39 + 6.0 x_20 * x_40 + 9.0 x_21 * x_1 - 18.0 x_21 * x_11 + 2.0 x_21 * x_13 - 3.5 x_21 * x_14 - 22.0 x_21 * x_15 + 0.5 x_21 * x_18 + 20.0 x_21 * x_20 - 13.5 x_21 * x_21 + 4.0 x_21 * x_25 + 15.5 x_21 * x_26 + 6.0 x_21 * x_29 + 23.5 x_21 * x_30 - 5.0 x_21 * x_31 - 3.5 x_21 * x_34 - 24.0 x_21 * x_36 - 14.0 x_21 * x_37 - 24.0 x_21 * x_38 + 17.0 x_21 * x_39 + 24.5 x_21 * x_40 - 23.0 x_22 * x_4 + 8.0 x_22 * x_6 + 7.0 x_22 * x_12 + 10.0 x_22 * x_13 - 17.5 x_22 * x_15 + 16.5 x_22 * x_16 + 6.5 x_22 * x_18 - 18.5 x_22 * x_20 + 19.0 x_22 * x_22 + 17.5 x_22 * x_26 - 23.5 x_22 * x_27 + 18.5 x_22 * x_31 - 3.5 x_22 * x_32 - 1.0 x_22 * x_34 - 21.0 x_22 * x_35 + 4.0 x_22 * x_36 - 6.5 x_22 * x_37 + 5.5 x_22 * x_38 + 20.5 x_23 * x_1 + 14.5 x_23 * x_3 + 13.0 x_23 * x_4 - 17.5 x_23 * x_9 + 11.5 x_23 * x_10 + 10.5 x_23 * x_11 - 2.5 x_23 * x_13 + 3.5 x_23 * x_14 - 18.0 x_23 * x_16 + 23.0 x_23 * x_18 - 22.0 x_23 * x_20 - 11.0 x_23 * x_23 - 1.5 x_23 * x_26 + 19.0 x_23 * x_27 + 24.0 x_23 * x_34 - 19.0 x_23 * x_35 + 17.0 x_23 * x_37 + 7.0 x_23 * x_38 + 17.5 x_23 * x_39 + 14.0 x_24 * x_3 - 7.0 x_24 * x_7 - 12.5 x_24 * x_8 + 22.5 x_24 * x_10 - 4.0 x_24 * x_12 - 13.0 x_24 * x_13 - 3.0 x_24 * x_14 + 11.5 x_24 * x_15 + 20.0 x_24 * x_16 - 19.0 x_24 * x_18 - 10.5 x_24 * x_19 - 2.0 x_24 * x_29 - 14.0 x_24 * x_31 + 23.5 x_24 * x_34 + 11.5 x_24 * x_36 - 7.5 x_25 * x_4 - 21.0 x_25 * x_5 - 1.5 x_25 * x_6 + 7.0 x_25 * x_7 - 4.5 x_25 * x_11 + 11.0 x_25 * x_13 - 2.5 x_25 * x_15 - 4.0 x_25 * x_18 - 19.0 x_25 * x_19 + 4.0 x_25 * x_21 - 9.0 x_25 * x_27 + 7.0 x_25 * x_37 + 1.5 x_26 * x_3 - 20.5 x_26 * x_5 + 5.0 x_26 * x_6 - 10.0 x_26 * x_9 - 19.0 x_26 * x_10 + 21.0 x_26 * x_12 - 1.0 x_26 * x_14 - 8.5 x_26 * x_15 - 5.0 x_26 * x_16 + 23.0 x_26 * x_20 + 15.5 x_26 * x_21 + 17.5 x_26 * x_22 - 1.5 x_26 * x_23 + 12.5 x_26 * x_26 - 6.5 x_26 * x_28 - 20.5 x_26 * x_29 - 2.0 x_26 * x_33 + 3.0 x_26 * x_36 - 24.5 x_26 * x_37 + 17.5 x_26 * x_39 - 19.5 x_26 * x_40 + 15.5 x_27 * x_1 + 1.5 x_27 * x_3 + 24.5 x_27 * x_13 - 12.0 x_27 * x_14 - 20.0 x_27 * x_16 - 1.0 x_27 * x_18 + 3.0 x_27 * x_20 - 23.5 x_27 * x_22 + 19.0 x_27 * x_23 - 9.0 x_27 * x_25 - 13.0 x_27 * x_27 + 24.0 x_27 * x_28 - 8.0 x_27 * x_29 + 16.5 x_27 * x_30 - 20.5 x_27 * x_31 + 7.0 x_27 * x_32 + 21.0 x_27 * x_34 + 19.5 x_27 * x_36 - 0.5 x_27 * x_38 - 5.5 x_28 * x_1 + 21.0 x_28 * x_2 - 0.5 x_28 * x_4 + 21.0 x_28 * x_5 - 20.5 x_28 * x_6 + 18.0 x_28 * x_7 - 10.5 x_28 * x_9 - 2.0 x_28 * x_11 - 13.0 x_28 * x_13 + 15.0 x_28 * x_16 - 22.0 x_28 * x_17 - 22.0 x_28 * x_18 + 12.0 x_28 * x_19 - 6.5 x_28 * x_26 + 24.0 x_28 * x_27 - 17.0 x_28 * x_33 + 6.0 x_28 * x_35 + 17.5 x_28 * x_36 + 5.5 x_28 * x_38 + 16.5 x_28 * x_40 - 3.5 x_29 * x_8 + 15.0 x_29 * x_9 - 24.0 x_29 * x_11 + 11.5 x_29 * x_13 + 17.5 x_29 * x_14 + 17.0 x_29 * x_16 - 11.0 x_29 * x_17 - 4.5 x_29 * x_19 + 6.0 x_29 * x_21 - 2.0 x_29 * x_24 - 20.5 x_29 * x_26 - 8.0 x_29 * x_27 - 1.5 x_29 * x_29 + 4.5 x_29 * x_30 - 15.0 x_29 * x_31 + 22.0 x_29 * x_32 + 5.0 x_29 * x_34 - 11.0 x_29 * x_35 - 4.5 x_29 * x_36 + 24.5 x_29 * x_38 + 24.5 x_29 * x_40 + 3.0 x_30 * x_1 - 0.5 x_30 * x_2 + 5.0 x_30 * x_7 + 7.5 x_30 * x_8 - 7.5 x_30 * x_10 + 5.5 x_30 * x_11 - 14.0 x_30 * x_14 - 2.5 x_30 * x_15 - 15.5 x_30 * x_16 + 16.5 x_30 * x_20 + 23.5 x_30 * x_21 + 16.5 x_30 * x_27 + 4.5 x_30 * x_29 + 3.5 x_30 * x_33 + 15.5 x_30 * x_35 - 15.5 x_30 * x_36 + 22.0 x_30 * x_37 - 19.0 x_30 * x_39 - 20.5 x_30 * x_40 - 6.5 x_31 * x_1 + 7.5 x_31 * x_2 - 23.0 x_31 * x_7 + 6.5 x_31 * x_8 - 1.5 x_31 * x_9 - 5.0 x_31 * x_12 - 5.0 x_31 * x_13 - 18.0 x_31 * x_14 - 14.0 x_31 * x_15 + 9.0 x_31 * x_16 - 9.5 x_31 * x_17 + 5.0 x_31 * x_18 - 18.5 x_31 * x_19 - 3.5 x_31 * x_20 - 5.0 x_31 * x_21 + 18.5 x_31 * x_22 - 14.0 x_31 * x_24 - 20.5 x_31 * x_27 - 15.0 x_31 * x_29 - 12.5 x_31 * x_33 + 7.0 x_31 * x_35 + 15.5 x_31 * x_37 - 12.0 x_31 * x_40 + 11.5 x_32 * x_2 + 20.5 x_32 * x_4 - 3.5 x_32 * x_9 + 7.0 x_32 * x_11 - 1.5 x_32 * x_13 - 17.5 x_32 * x_14 + 17.5 x_32 * x_15 + 21.5 x_32 * x_18 + 4.5 x_32 * x_19 + 16.5 x_32 * x_20 - 3.5 x_32 * x_22 + 7.0 x_32 * x_27 + 22.0 x_32 * x_29 - 23.0 x_32 * x_32 + 17.0 x_32 * x_33 - 17.5 x_32 * x_35 + 4.0 x_32 * x_37 + 14.5 x_32 * x_38 + 23.5 x_32 * x_39 - 24.0 x_32 * x_40 - 1.0 x_33 * x_1 - 20.0 x_33 * x_5 - 12.5 x_33 * x_7 + 17.0 x_33 * x_10 + 1.0 x_33 * x_11 + 2.0 x_33 * x_12 + 4.5 x_33 * x_16 - 8.0 x_33 * x_17 + 14.0 x_33 * x_18 + 6.5 x_33 * x_19 - 2.0 x_33 * x_26 - 17.0 x_33 * x_28 + 3.5 x_33 * x_30 - 12.5 x_33 * x_31 + 17.0 x_33 * x_32 - 19.0 x_33 * x_34 - 13.5 x_33 * x_37 - 16.5 x_33 * x_38 + 11.5 x_33 * x_39 + 20.5 x_33 * x_40 + 6.0 x_34 * x_3 + 15.5 x_34 * x_4 - 23.5 x_34 * x_5 + 24.0 x_34 * x_7 + 11.0 x_34 * x_10 - 10.5 x_34 * x_11 + 1.5 x_34 * x_13 - 6.5 x_34 * x_15 - 17.5 x_34 * x_16 - 24.0 x_34 * x_17 + 12.5 x_34 * x_18 + 16.0 x_34 * x_20 - 3.5 x_34 * x_21 - 1.0 x_34 * x_22 + 24.0 x_34 * x_23 + 23.5 x_34 * x_24 + 21.0 x_34 * x_27 + 5.0 x_34 * x_29 - 19.0 x_34 * x_33 + 20.5 x_34 * x_36 - 3.0 x_35 * x_1 + 2.0 x_35 * x_2 - 21.5 x_35 * x_4 + 12.5 x_35 * x_5 + 23.0 x_35 * x_6 + 14.0 x_35 * x_8 + 23.0 x_35 * x_9 + 9.0 x_35 * x_10 - 0.5 x_35 * x_12 + 24.5 x_35 * x_13 - 8.0 x_35 * x_16 + 17.5 x_35 * x_18 - 23.5 x_35 * x_19 + 1.0 x_35 * x_20 - 21.0 x_35 * x_22 - 19.0 x_35 * x_23 + 6.0 x_35 * x_28 - 11.0 x_35 * x_29 + 15.5 x_35 * x_30 + 7.0 x_35 * x_31 - 17.5 x_35 * x_32 - 24.0 x_35 * x_35 + 15.5 x_35 * x_36 - 4.0 x_35 * x_37 + 23.0 x_35 * x_39 - 17.0 x_35 * x_40 + 17.5 x_36 * x_3 - 16.0 x_36 * x_8 - 2.0 x_36 * x_9 + 2.5 x_36 * x_10 - 16.0 x_36 * x_11 - 22.5 x_36 * x_13 - 8.0 x_36 * x_14 + 22.0 x_36 * x_16 - 21.5 x_36 * x_17 - 14.0 x_36 * x_19 - 24.0 x_36 * x_21 + 4.0 x_36 * x_22 + 11.5 x_36 * x_24 + 3.0 x_36 * x_26 + 19.5 x_36 * x_27 + 17.5 x_36 * x_28 - 4.5 x_36 * x_29 - 15.5 x_36 * x_30 + 20.5 x_36 * x_34 + 15.5 x_36 * x_35 - 8.0 x_36 * x_37 + 8.0 x_37 * x_1 + 15.0 x_37 * x_2 - 17.5 x_37 * x_3 - 1.5 x_37 * x_5 + 18.5 x_37 * x_9 - 15.5 x_37 * x_10 + 22.0 x_37 * x_11 - 0.5 x_37 * x_14 + 22.0 x_37 * x_15 + 0.5 x_37 * x_16 - 15.0 x_37 * x_20 - 14.0 x_37 * x_21 - 6.5 x_37 * x_22 + 17.0 x_37 * x_23 + 7.0 x_37 * x_25 - 24.5 x_37 * x_26 + 22.0 x_37 * x_30 + 15.5 x_37 * x_31 + 4.0 x_37 * x_32 - 13.5 x_37 * x_33 - 4.0 x_37 * x_35 - 8.0 x_37 * x_36 - 4.0 x_37 * x_39 - 12.5 x_37 * x_40 + 3.0 x_38 * x_2 - 7.0 x_38 * x_5 + 8.5 x_38 * x_6 - 23.0 x_38 * x_8 - 21.5 x_38 * x_13 - 9.5 x_38 * x_17 + 3.0 x_38 * x_20 - 24.0 x_38 * x_21 + 5.5 x_38 * x_22 + 7.0 x_38 * x_23 - 0.5 x_38 * x_27 + 5.5 x_38 * x_28 + 24.5 x_38 * x_29 + 14.5 x_38 * x_32 - 16.5 x_38 * x_33 - 4.5 x_38 * x_38 - 2.0 x_38 * x_39 + 14.5 x_39 * x_2 - 10.0 x_39 * x_4 - 18.0 x_39 * x_8 - 24.0 x_39 * x_10 + 23.5 x_39 * x_12 + 0.5 x_39 * x_13 + 7.5 x_39 * x_14 + 15.5 x_39 * x_15 - 4.0 x_39 * x_18 - 16.0 x_39 * x_19 - 13.0 x_39 * x_20 + 17.0 x_39 * x_21 + 17.5 x_39 * x_23 + 17.5 x_39 * x_26 - 19.0 x_39 * x_30 + 23.5 x_39 * x_32 + 11.5 x_39 * x_33 + 23.0 x_39 * x_35 - 4.0 x_39 * x_37 - 2.0 x_39 * x_38 + 19.0 x_39 * x_39 - 10.0 x_39 * x_40 + 4.0 x_40 * x_3 + 24.0 x_40 * x_4 - 19.0 x_40 * x_6 + 22.5 x_40 * x_7 - 15.0 x_40 * x_8 - 3.5 x_40 * x_10 + 5.5 x_40 * x_13 + 6.0 x_40 * x_20 + 24.5 x_40 * x_21 - 19.5 x_40 * x_26 + 16.5 x_40 * x_28 + 24.5 x_40 * x_29 - 20.5 x_40 * x_30 - 12.0 x_40 * x_31 - 24.0 x_40 * x_32 + 20.5 x_40 * x_33 - 17.0 x_40 * x_35 - 12.5 x_40 * x_37 - 10.0 x_40 * x_39 ] + 39.0 x_1 + 45.0 x_2 + 0.0 x_3 + 0.0 x_4 + 0.0 x_5 + 0.0 x_6 + 0.0 x_7 + 0.0 x_8 + 45.0 x_9 + 34.0 x_10 + 18.0 x_11 - 20.0 x_12 + 0.0 x_13 + 0.0 x_14 + 0.0 x_15 + 42.0 x_16 + 0.0 x_17 + 0.0 x_18 + 0.0 x_19 + 0.0 x_20 - 27.0 x_21 - 8.0 x_22 + 37.0 x_23 - 47.0 x_24 - 15.0 x_25 + 0.0 x_26 - 32.0 x_27 + 0.0 x_28 - 23.0 x_29 - 47.0 x_30 + 25.0 x_31 + 40.0 x_32 + 0.0 x_33 + 6.0 x_34 + 6.0 x_35 + 0.0 x_36 + 5.0 x_37 + 40.0 x_38 - 37.0 x_39 + 0.0 x_40

Subject To
 e2: [  x_1 * x_10 ] = 0.0
 e3: [  x_1 * x_13 ] = 0.0
 e4: [  x_2 * x_12 ] = 0.0
 e5: [  x_2 * x_35 ] = 0.0
 e6: [  x_3 * x_10 ] = 0.0
 e7: [  x_3 * x_23 ] = 0.0
 e8: [  x_3 * x_26 ] = 0.0
 e9: [  x_3 * x_36 ] = 0.0
 e10: [  x_4 * x_28 ] = 0.0
 e11: [  x_4 * x_40 ] = 0.0
 e12: [  x_5 * x_25 ] = 0.0
 e13: [  x_5 * x_37 ] = 0.0
 e14: [  x_6 * x_6 ] = 0.0
 e15: [  x_6 * x_11 ] = 0.0
 e16: [  x_6 * x_26 ] = 0.0
 e17: [  x_7 * x_30 ] = 0.0
 e18: [  x_7 * x_34 ] = 0.0
 e19: [  x_8 * x_4 ] = 0.0
 e20: [  x_8 * x_24 ] = 0.0
 e21: [  x_8 * x_30 ] = 0.0
 e22: [  x_8 * x_40 ] = 0.0
 e23: [  x_9 * x_1 ] = 0.0
 e24: [  x_10 * x_13 ] = 0.0
 e25: [  x_10 * x_20 ] = 0.0
 e26: [  x_10 * x_30 ] = 0.0
 e27: [  x_10 * x_35 ] = 0.0
 e28: [  x_10 * x_40 ] = 0.0
 e29: [  x_11 * x_17 ] = 0.0
 e30: [  x_11 * x_30 ] = 0.0
 e31: [  x_11 * x_37 ] = 0.0
 e32: [  x_12 * x_33 ] = 0.0
 e33: [  x_12 * x_35 ] = 0.0
 e34: [  x_12 * x_39 ] = 0.0
 e35: [  x_13 * x_27 ] = 0.0
 e36: [  x_13 * x_34 ] = 0.0
 e37: [  x_13 * x_38 ] = 0.0
 e38: [  x_14 * x_2 ] = 0.0
 e39: [  x_14 * x_17 ] = 0.0
 e40: [  x_14 * x_20 ] = 0.0
 e41: [  x_14 * x_21 ] = 0.0
 e42: [  x_15 * x_6 ] = 0.0
 e43: [  x_16 * x_8 ] = 0.0
 e44: [  x_16 * x_26 ] = 0.0
 e45: [  x_16 * x_31 ] = 0.0
 e46: [  x_17 * x_10 ] = 0.0
 e47: [  x_17 * x_17 ] = 0.0
 e48: [  x_17 * x_29 ] = 0.0
 e49: [  x_17 * x_31 ] = 0.0
 e50: [  x_17 * x_36 ] = 0.0
 e51: [  x_17 * x_38 ] = 0.0
 e52: [  x_18 * x_14 ] = 0.0
 e53: [  x_18 * x_15 ] = 0.0
 e54: [  x_18 * x_23 ] = 0.0
 e55: [  x_18 * x_28 ] = 0.0
 e56: [  x_19 * x_13 ] = 0.0
 e57: [  x_19 * x_25 ] = 0.0
 e58: [  x_19 * x_35 ] = 0.0
 e59: [  x_20 * x_40 ] = 0.0
 e60: [  x_21 * x_1 ] = 0.0
 e61: [  x_21 * x_13 ] = 0.0
 e62: [  x_22 * x_13 ] = 0.0
 e63: [  x_22 * x_16 ] = 0.0
 e64: [  x_22 * x_35 ] = 0.0
 e65: [  x_23 * x_13 ] = 0.0
 e66: [  x_23 * x_14 ] = 0.0
 e67: [  x_25 * x_5 ] = 0.0
 e68: [  x_26 * x_33 ] = 0.0
 e69: [  x_28 * x_33 ] = 0.0
 e70: [  x_28 * x_38 ] = 0.0
 e71: [  x_29 * x_19 ] = 0.0
 e72: [  x_29 * x_21 ] = 0.0
 e73: [  x_30 * x_15 ] = 0.0
 e74: [  x_30 * x_35 ] = 0.0
 e75: [  x_31 * x_29 ] = 0.0
 e76: [  x_31 * x_40 ] = 0.0
 e77: [  x_32 * x_27 ] = 0.0
 e78: [  x_35 * x_35 ] = 0.0
 e79: [  x_35 * x_40 ] = 0.0
 e80: [  x_36 * x_24 ] = 0.0
 e81: [  x_37 * x_22 ] = 0.0
 e82: [  x_37 * x_23 ] = 0.0
 e83: [  x_37 * x_35 ] = 0.0
 e84: [  x_37 * x_36 ] = 0.0
 e85: [  x_38 * x_17 ] = 0.0
 e86: [  x_39 * x_2 ] = 0.0
 e87: [  x_39 * x_8 ] = 0.0
 e88: [  x_39 * x_12 ] = 0.0
 e89: [  x_39 * x_19 ] = 0.0
 e90: [  x_39 * x_21 ] = 0.0
 e91: [  x_39 * x_33 ] = 0.0
 e92: [  x_39 * x_40 ] = 0.0
 e93: [  x_40 * x_7 ] = 0.0
 e94: [  x_40 * x_30 ] = 0.0
 e95: [  x_40 * x_31 ] = 0.0
 e96: [  x_40 * x_39 ] = 0.0

Bounds
 x_1 <= 1.0
 x_2 <= 1.0
 x_3 <= 1.0
 x_4 <= 1.0
 x_5 <= 1.0
 x_6 <= 1.0
 x_7 <= 1.0
 x_8 <= 1.0
 x_9 <= 1.0
 x_10 <= 1.0
 x_11 <= 1.0
 x_12 <= 1.0
 x_13 <= 1.0
 x_14 <= 1.0
 x_15 <= 1.0
 x_16 <= 1.0
 x_17 <= 1.0
 x_18 <= 1.0
 x_19 <= 1.0
 x_20 <= 1.0
 x_21 <= 1.0
 x_22 <= 1.0
 x_23 <= 1.0
 x_24 <= 1.0
 x_25 <= 1.0
 x_26 <= 1.0
 x_27 <= 1.0
 x_28 <= 1.0
 x_29 <= 1.0
 x_30 <= 1.0
 x_31 <= 1.0
 x_32 <= 1.0
 x_33 <= 1.0
 x_34 <= 1.0
 x_35 <= 1.0
 x_36 <= 1.0
 x_37 <= 1.0
 x_38 <= 1.0
 x_39 <= 1.0
 x_40 <= 1.0

End